(set-logic QF_BV)
(set-info :smt-lib-version 2.0)

(declare-fun input0-0 () (_ BitVec 8))
(declare-fun input0-1 () (_ BitVec 8))
(declare-fun input0-2 () (_ BitVec 8))
(declare-fun input0-3 () (_ BitVec 8))
(declare-fun input0-4 () (_ BitVec 8))
(declare-fun input0-5 () (_ BitVec 8))
(declare-fun input0-6 () (_ BitVec 8))
(declare-fun input0-7 () (_ BitVec 8))
(declare-fun input0-8 () (_ BitVec 8))
(declare-fun input0-9 () (_ BitVec 8))
(declare-fun input0-10 () (_ BitVec 8))
(declare-fun input0-11 () (_ BitVec 8))
(declare-fun input0-12 () (_ BitVec 8))
(declare-fun input0-13 () (_ BitVec 8))
(declare-fun input0-14 () (_ BitVec 8))
(declare-fun input0-15 () (_ BitVec 8))
(declare-fun input0-16 () (_ BitVec 8))
(declare-fun input0-17 () (_ BitVec 8))
(declare-fun input0-18 () (_ BitVec 8))
(declare-fun input0-19 () (_ BitVec 8))
(declare-fun input0-20 () (_ BitVec 8))
(declare-fun input0-21 () (_ BitVec 8))
(declare-fun input0-22 () (_ BitVec 8))
(declare-fun input0-23 () (_ BitVec 8))
(declare-fun input0-24 () (_ BitVec 8))
(declare-fun input0-25 () (_ BitVec 8))
(declare-fun input0-26 () (_ BitVec 8))
(declare-fun input0-27 () (_ BitVec 8))
(declare-fun input0-28 () (_ BitVec 8))
(declare-fun input0-29 () (_ BitVec 8))
(declare-fun input0-30 () (_ BitVec 8))
(declare-fun input0-31 () (_ BitVec 8))
(declare-fun input0-32 () (_ BitVec 8))
(declare-fun input0-33 () (_ BitVec 8))
(declare-fun input0-34 () (_ BitVec 8))
(declare-fun input0-35 () (_ BitVec 8))
(declare-fun input0-36 () (_ BitVec 8))
(declare-fun input0-37 () (_ BitVec 8))
(declare-fun input0-38 () (_ BitVec 8))
(declare-fun input0-39 () (_ BitVec 8))
(declare-fun input0-40 () (_ BitVec 8))
(declare-fun input0-41 () (_ BitVec 8))
(declare-fun input0-42 () (_ BitVec 8))
(declare-fun input0-43 () (_ BitVec 8))
(declare-fun input0-44 () (_ BitVec 8))
(declare-fun input0-45 () (_ BitVec 8))
(declare-fun input0-46 () (_ BitVec 8))
(declare-fun input0-47 () (_ BitVec 8))
(declare-fun input0-48 () (_ BitVec 8))
(declare-fun input0-49 () (_ BitVec 8))
(declare-fun input0-50 () (_ BitVec 8))
(declare-fun input0-51 () (_ BitVec 8))
(declare-fun input0-52 () (_ BitVec 8))
(declare-fun input0-53 () (_ BitVec 8))
(declare-fun input0-54 () (_ BitVec 8))
(declare-fun input0-55 () (_ BitVec 8))
(declare-fun input0-56 () (_ BitVec 8))
(declare-fun input0-57 () (_ BitVec 8))
(declare-fun input0-58 () (_ BitVec 8))
(declare-fun input0-59 () (_ BitVec 8))
(declare-fun input0-60 () (_ BitVec 8))
(declare-fun input0-61 () (_ BitVec 8))
(declare-fun input0-62 () (_ BitVec 8))
(declare-fun input0-63 () (_ BitVec 8))
(declare-fun input0-64 () (_ BitVec 8))
(declare-fun input0-65 () (_ BitVec 8))
(declare-fun input0-66 () (_ BitVec 8))
(declare-fun input0-67 () (_ BitVec 8))
(declare-fun input0-68 () (_ BitVec 8))
(declare-fun input0-69 () (_ BitVec 8))
(declare-fun input0-70 () (_ BitVec 8))
(declare-fun input0-71 () (_ BitVec 8))
(declare-fun input0-72 () (_ BitVec 8))
(declare-fun input0-73 () (_ BitVec 8))
(declare-fun input0-74 () (_ BitVec 8))
(declare-fun input0-75 () (_ BitVec 8))
(declare-fun input0-76 () (_ BitVec 8))
(declare-fun input0-77 () (_ BitVec 8))
(declare-fun input0-78 () (_ BitVec 8))
(declare-fun input0-79 () (_ BitVec 8))
(declare-fun input0-80 () (_ BitVec 8))
(declare-fun input0-81 () (_ BitVec 8))
(declare-fun input0-82 () (_ BitVec 8))
(declare-fun input0-83 () (_ BitVec 8))
(declare-fun input0-84 () (_ BitVec 8))
(declare-fun input0-85 () (_ BitVec 8))
(declare-fun input0-86 () (_ BitVec 8))
(declare-fun input0-87 () (_ BitVec 8))
(declare-fun t0 () (_ BitVec 8))
(assert (= t0 input0-0))
(declare-fun t1 () (_ BitVec 8))
(assert (= t1 input0-1))
(declare-fun t2 () (_ BitVec 8))
(assert (= t2 input0-2))
(declare-fun t3 () (_ BitVec 8))
(assert (= t3 input0-3))
(declare-fun t4 () (_ BitVec 8))
(assert (= t4 input0-4))
(declare-fun t5 () (_ BitVec 8))
(assert (= t5 input0-5))
(declare-fun t6 () (_ BitVec 8))
(assert (= t6 input0-6))
(declare-fun t7 () (_ BitVec 8))
(assert (= t7 input0-7))
(declare-fun t8 () (_ BitVec 8))
(assert (= t8 input0-8))
(declare-fun t9 () (_ BitVec 8))
(assert (= t9 input0-9))
(declare-fun t10 () (_ BitVec 8))
(assert (= t10 input0-10))
(declare-fun t11 () (_ BitVec 8))
(assert (= t11 input0-11))
(declare-fun t12 () (_ BitVec 8))
(assert (= t12 input0-12))
(declare-fun t13 () (_ BitVec 8))
(assert (= t13 input0-13))
(declare-fun t14 () (_ BitVec 8))
(assert (= t14 input0-14))
(declare-fun t15 () (_ BitVec 8))
(assert (= t15 input0-15))
(declare-fun t16 () (_ BitVec 8))
(assert (= t16 input0-16))
(declare-fun t17 () (_ BitVec 8))
(assert (= t17 input0-17))
(declare-fun t18 () (_ BitVec 8))
(assert (= t18 input0-18))
(declare-fun t19 () (_ BitVec 8))
(assert (= t19 input0-19))
(declare-fun t20 () (_ BitVec 8))
(assert (= t20 input0-20))
(declare-fun t21 () (_ BitVec 8))
(assert (= t21 input0-21))
(declare-fun t22 () (_ BitVec 8))
(assert (= t22 input0-22))
(declare-fun t23 () (_ BitVec 8))
(assert (= t23 input0-23))
(declare-fun t24 () (_ BitVec 8))
(assert (= t24 input0-24))
(declare-fun t25 () (_ BitVec 8))
(assert (= t25 input0-25))
(declare-fun t26 () (_ BitVec 8))
(assert (= t26 input0-26))
(declare-fun t27 () (_ BitVec 8))
(assert (= t27 input0-27))
(declare-fun t28 () (_ BitVec 8))
(assert (= t28 input0-28))
(declare-fun t29 () (_ BitVec 8))
(assert (= t29 input0-29))
(declare-fun t30 () (_ BitVec 8))
(assert (= t30 input0-30))
(declare-fun t31 () (_ BitVec 8))
(assert (= t31 input0-31))
(declare-fun t32 () (_ BitVec 8))
(assert (= t32 input0-32))
(declare-fun t33 () (_ BitVec 8))
(assert (= t33 input0-33))
(declare-fun t34 () (_ BitVec 8))
(assert (= t34 input0-34))
(declare-fun t35 () (_ BitVec 8))
(assert (= t35 input0-35))
(declare-fun t36 () (_ BitVec 8))
(assert (= t36 input0-36))
(declare-fun t37 () (_ BitVec 8))
(assert (= t37 input0-37))
(declare-fun t38 () (_ BitVec 8))
(assert (= t38 input0-38))
(declare-fun t39 () (_ BitVec 8))
(assert (= t39 input0-39))
(declare-fun t40 () (_ BitVec 8))
(assert (= t40 input0-40))
(declare-fun t41 () (_ BitVec 8))
(assert (= t41 input0-41))
(declare-fun t42 () (_ BitVec 8))
(assert (= t42 input0-42))
(declare-fun t43 () (_ BitVec 8))
(assert (= t43 input0-43))
(declare-fun t44 () (_ BitVec 8))
(assert (= t44 input0-44))
(declare-fun t45 () (_ BitVec 8))
(assert (= t45 input0-45))
(declare-fun t46 () (_ BitVec 8))
(assert (= t46 input0-46))
(declare-fun t47 () (_ BitVec 8))
(assert (= t47 input0-47))
(declare-fun t48 () (_ BitVec 8))
(assert (= t48 input0-48))
(declare-fun t49 () (_ BitVec 8))
(assert (= t49 input0-49))
(declare-fun t50 () (_ BitVec 8))
(assert (= t50 input0-50))
(declare-fun t51 () (_ BitVec 8))
(assert (= t51 input0-51))
(declare-fun t52 () (_ BitVec 8))
(assert (= t52 input0-52))
(declare-fun t53 () (_ BitVec 8))
(assert (= t53 input0-53))
(declare-fun t54 () (_ BitVec 8))
(assert (= t54 input0-54))
(declare-fun t55 () (_ BitVec 8))
(assert (= t55 input0-55))
(declare-fun t56 () (_ BitVec 8))
(assert (= t56 input0-56))
(declare-fun t57 () (_ BitVec 8))
(assert (= t57 input0-57))
(declare-fun t58 () (_ BitVec 8))
(assert (= t58 input0-58))
(declare-fun t59 () (_ BitVec 8))
(assert (= t59 input0-59))
(declare-fun t60 () (_ BitVec 8))
(assert (= t60 input0-60))
(declare-fun t61 () (_ BitVec 8))
(assert (= t61 input0-61))
(declare-fun t62 () (_ BitVec 8))
(assert (= t62 input0-62))
(declare-fun t63 () (_ BitVec 8))
(assert (= t63 input0-63))
(declare-fun t64 () (_ BitVec 8))
(assert (= t64 input0-64))
(declare-fun t65 () (_ BitVec 8))
(assert (= t65 input0-65))
(declare-fun t66 () (_ BitVec 8))
(assert (= t66 input0-66))
(declare-fun t67 () (_ BitVec 8))
(assert (= t67 input0-67))
(declare-fun t68 () (_ BitVec 8))
(assert (= t68 input0-68))
(declare-fun t69 () (_ BitVec 8))
(assert (= t69 input0-69))
(declare-fun t70 () (_ BitVec 8))
(assert (= t70 input0-70))
(declare-fun t71 () (_ BitVec 8))
(assert (= t71 input0-71))
(declare-fun t72 () (_ BitVec 8))
(assert (= t72 input0-72))
(declare-fun t73 () (_ BitVec 8))
(assert (= t73 input0-73))
(declare-fun t74 () (_ BitVec 8))
(assert (= t74 input0-74))
(declare-fun t75 () (_ BitVec 8))
(assert (= t75 input0-75))
(declare-fun t76 () (_ BitVec 8))
(assert (= t76 input0-76))
(declare-fun t77 () (_ BitVec 8))
(assert (= t77 input0-77))
(declare-fun t78 () (_ BitVec 8))
(assert (= t78 input0-78))
(declare-fun t79 () (_ BitVec 8))
(assert (= t79 input0-79))
(declare-fun t80 () (_ BitVec 8))
(assert (= t80 input0-80))
(declare-fun t81 () (_ BitVec 8))
(assert (= t81 input0-81))
(declare-fun t82 () (_ BitVec 8))
(assert (= t82 input0-82))
(declare-fun t83 () (_ BitVec 8))
(assert (= t83 input0-83))
(declare-fun t84 () (_ BitVec 8))
(assert (= t84 input0-84))
(declare-fun t85 () (_ BitVec 8))
(assert (= t85 input0-85))
(declare-fun t86 () (_ BitVec 8))
(assert (= t86 input0-86))
(declare-fun t87 () (_ BitVec 8))
(assert (= t87 input0-87))

(assert (= t87 #xa5))
(assert (= t86 #x62))
(assert (= t85 #x58))
(assert (= t84 #x4e))
(assert (= t83 #xe3))
(assert (= t82 #x57))
(assert (= t81 #xa8))
(assert (= t80 #x0c))
(assert (= t79 #x6f))
(assert (= t78 #x70))
(assert (= t77 #x03))
(assert (= t76 #x92))
(assert (= t75 #xf9))
(assert (= t74 #x0a))
(assert (= t73 #x7b))
(assert (= t72 #x7a))
(assert (= t71 #x3e))
(assert (= t70 #xef))
(assert (= t69 #x3c))
(assert (= t68 #x6b))
(assert (= t67 #x2c))
(assert (= t66 #xc7))
(assert (= t65 #x05))
(assert (= t64 #x28))
(assert (= t63 #x87))
(assert (= t62 #xee))
(assert (= t61 #x05))
(assert (= t60 #x78))
(assert (= t59 #xbe))
(assert (= t58 #xd6))
(assert (= t57 #xa6))
(assert (= t56 #x96))
(assert (= t55 #x80))
(assert (= t54 #xe2))
(assert (= t53 #x59))
(assert (= t52 #xb3))
(assert (= t51 #x52))
(assert (= t50 #x4b))
(assert (= t49 #x24))
(assert (= t48 #x10))
(assert (= t47 #x1f))
(assert (= t46 #x3e))
(assert (= t45 #xa3))
(assert (= t44 #x0b))
(assert (= t43 #xb5))
(assert (= t42 #xba))
(assert (= t41 #x66))
(assert (= t40 #x94))
(assert (= t39 #x14))
(assert (= t38 #xff))
(assert (= t37 #x45))
(assert (= t36 #x88))
(assert (= t35 #x75))
(assert (= t34 #x0b))
(assert (= t33 #x00))
(assert (= t32 #xad))
(assert (= t31 #xd7))
(assert (= t30 #xd5))
(assert (= t29 #x5a))
(assert (= t28 #x4e))
(assert (= t27 #x16))
(assert (= t26 #xf8))
(assert (= t25 #xcf))
(assert (= t24 #xdb))
(assert (= t23 #xb6))
(assert (= t22 #x72))
(assert (= t21 #xdc))
(assert (= t20 #x1d))
(assert (= t19 #xea))
(assert (= t18 #x51))
(assert (= t17 #xb4))
(assert (= t16 #x57))
(assert (= t15 #x34))
(assert (= t14 #x2f))
(assert (= t13 #x85))
(assert (= t12 #xf4))
(assert (= t11 #x8c))
(assert (= t10 #xae))
(assert (= t9 #xaf))
(assert (= t8 #x82))
(assert (= t7 #xd4))
(assert (= t6 #xc7))
(assert (= t5 #x42))
(assert (= t4 #x9b))
(assert (= t3 #x02))
(assert (= t2 #xef))
(assert (= t1 #x11))
(assert (= t0 #xd0))
(assert true)

(check-sat)
(exit)
